
  22    4
  10   10   10   10

   0   0   0   0   0   4 2 3 4 7 
   2  10  10  10  10   4 16 10 9 6 
   8  10  10  10  10   6 16 14 11 10 9 8 
   1  10  10  10  10   4 16 10 8 5 
   9  10  10  10  10   6 21 15 14 13 12 11 
   4  10  10  10  10   5 21 14 12 11 8 
   5  10  10  10  10   6 21 20 19 16 14 12 
  10  10  10  10  10   4 20 19 17 13 
   2  10  10  10  10   4 21 19 18 12 
   9  10  10  10  10   3 17 15 13 
   5  10  10  10  10   4 20 19 18 17 
   3  10  10  10  10   1 17 
   7  10  10  10  10   1 18 
   5  10  10  10  10   1 17 
   7  10  10  10  10   1 19 
   6  10  10  10  10   1 18 
  10  10  10  10  10   1 22
   9  10  10  10  10   1 22
   2  10  10  10  10   1 22
   9  10  10  10  10   1 22
   2  10  10  10  10   1 22
   0   0   0   0   0   0 
